rect_size = array1d(1..1,
    [|3,11|3,13|2,9|2,7|3,9|3,7|2,11|2,13|4,11|4,13|5,3|2,11|2,2|3,11|3,2|4,5|4,6|2,12|2,1|5,3|5,13|4,12|4,1|2,5|2,6|]);

rect_offset = array1d(1..1, [|0,0 |0,0 |0,0 |0,0 |0,0 |0,0 |0,0 |0,0 |0,0 |0,0 |0,0
    |0,0 |0,0 |0,0 |0,0 |0,0 |0,0 |0,0 |0,0 |0,0 |0,0 |0,0 |0,0 |0,0
    |0,0 |]);

shape = array1d(1..25, [{1}, {2}, {3}, {4}, {5}, {6}, {7}, {8}, {9}, {10},
    {11}, {12}, {13}, {14}, {15}, {16}, {17}, {18}, {19}, {20}, {21},
    {22}, {23}, {24}, {25}]);

valid_shapes = array1d(1..25, [{1,2}, {3,4}, {5,6}, {7,8}, {9,10}, {11,12}, {13,14},
    {15,16}, {17,18}, {19,20}, {21,22}, {23,24}, {25,26}, {27,28},
    {29,30}, {31,32}, {33,34}, {35,36}, {37,38}, {39,40}, {41,42},
    {43,44}, {45,46}, {47,48}, {49,50}]);

